<number of tasks>
20

<cycle time>
1000

<order strength>
0,8


<task times>
1 498
2 251
3 133
4 98
5 251
6 495
7 179
8 192
9 200
10 555
11 98
12 430
13 153
14 500
15 428
16 565
17 97
18 296
19 178
20 45

<precedence relations>
1,3
1,4
2,13
2,14
3,5
3,6
4,5
5,7
5,8
5,9
6,7
7,10
7,11
8,10
8,13
9,13
10,12
10,14
11,13
11,14
12,15
12,16
13,15
13,16
14,15
14,16
16,17
17,18
17,19
17,20

<end>
